137 26 68 49 16 115 152 155 111 74 174 3 119 42 9 185 140 182 172 35 97 166 70 101 130 54 112 132 8 90 108 161 2 36 188 69 169 197 109 127 10 22 190 159 191 122 149 121 46 19 147 184 180 55 11 13 165 60 32 64 21 102 136 24 126 88 167 40 85 178 148 78 143 99 1 142 0 76 199 192 175 110 138 193 171 71 151 164 168 63 139 48 196 15 198 65 89 100 116 146 53 189 14 23 98 87 157 128 57 6 37 103 163 123 117 50 107 28 124 114 56 61 82 39 75 92 144 30 81 162 73 59 95 43 183 186 94 58 133 160 67 187 96 93 66 120 131 84 113 173 134 153 156 129 41 145 17 72 45 194 83 51 106 62 141 18 86 181 20 91 34 195 170 118 47 4 80 44 38 104 79 27 176 12 150 177 29 52 154 105 179 7 25 5 135 158 31 125 33 77